TITLE : Patch_test_for_H8_element
        (23:2:30 on June 20, 2024, Thursday)

C O N T R O L   I N F O R M A T I O N

      NUMBER OF NODAL POINTS . . . . . . . . . . (NUMNP)  =    16
      NUMBER OF ELEMENT GROUPS . . . . . . . . . (NUMEG)  =     1
      NUMBER OF LOAD CASES . . . . . . . . . . . (NLCASE) =     1
      SOLUTION MODE  . . . . . . . . . . . . . . (MODEX)  =     1
         EQ.0, DATA CHECK
         EQ.1, EXECUTION

 N O D A L   P O I N T   D A T A

    NODE       BOUNDARY                         NODAL POINT
   NUMBER  CONDITION  CODES                     COORDINATES
        1    1    1    1    1    1    1       0.00000e+00    0.00000e+00    0.00000e+00
        2    0    1    1    1    1    1       2.50000e+00    0.00000e+00    0.00000e+00
        3    0    0    0    1    1    1       2.50000e+00    3.00000e+00    0.00000e+00
        4    0    0    1    1    1    1       0.00000e+00    2.00000e+00    0.00000e+00
        5    0    0    0    1    1    1       5.00000e-01    5.00000e-01    0.00000e+00
        6    0    0    0    1    1    1       2.00000e+00    7.50000e-01    0.00000e+00
        7    0    0    0    1    1    1       1.75000e+00    1.75000e+00    0.00000e+00
        8    0    0    0    1    1    1       6.50000e-01    1.60000e+00    0.00000e+00
        9    0    0    0    1    1    1       0.00000e+00    0.00000e+00    4.00000e+00
       10    0    0    0    1    1    1       2.50000e+00    0.00000e+00    4.00000e+00
       11    0    0    0    1    1    1       2.50000e+00    3.00000e+00    4.00000e+00
       12    0    0    0    1    1    1       0.00000e+00    2.00000e+00    4.00000e+00
       13    0    0    0    1    1    1       5.00000e-01    5.00000e-01    4.00000e+00
       14    0    0    0    1    1    1       2.00000e+00    7.50000e-01    4.00000e+00
       15    0    0    0    1    1    1       1.75000e+00    1.75000e+00    4.00000e+00
       16    0    0    0    1    1    1       6.50000e-01    1.60000e+00    4.00000e+00

 EQUATION NUMBERS

   NODE NUMBER   DEGREES OF FREEDOM
        N           X    Y    Z
        1           0    0    0    0    0    0
        2           1    0    0    0    0    0
        3           2    3    4    0    0    0
        4           5    6    0    0    0    0
        5           7    8    9    0    0    0
        6          10   11   12    0    0    0
        7          13   14   15    0    0    0
        8          16   17   18    0    0    0
        9          19   20   21    0    0    0
       10          22   23   24    0    0    0
       11          25   26   27    0    0    0
       12          28   29   30    0    0    0
       13          31   32   33    0    0    0
       14          34   35   36    0    0    0
       15          37   38   39    0    0    0
       16          40   41   42    0    0    0

 L O A D   C A S E   D A T A

     LOAD CASE NUMBER . . . . . . . =     1
     NUMBER OF CONCENTRATED LOADS . =     8

    NODE       DIRECTION      LOAD
   NUMBER                   MAGNITUDE
      1            1       -2.00000e+01
      2            1        3.00000e+01
      3            1        2.00000e+01
      4            1       -3.00000e+01
      9            1       -2.00000e+01
     10            1        3.00000e+01
     11            1        2.00000e+01
     12            1       -3.00000e+01

 E L E M E N T   G R O U P   D A T A


 E L E M E N T   D E F I N I T I O N

 ELEMENT TYPE  . . . . . . . . . . . . .( NPAR(1) ) . . =    4
     EQ.1, TRUSS ELEMENTS
     EQ.2, Q4 ELEMENTS
     EQ.3, T3 ELEMENTS
     EQ.4, H8 ELEMENTS
     EQ.5, BEAM ELEMENTS
     EQ.7, SHELL ELEMENTS

 NUMBER OF ELEMENTS. . . . . . . . . . .( NPAR(2) ) . . =    5

 M A T E R I A L   D E F I N I T I O N

 NUMBER OF DIFFERENT SETS OF MATERIAL
 AND CROSS-SECTIONAL  CONSTANTS  . . . .( NPAR(3) ) . . =    1

  SET       YOUNG'S       POISSON'S
 NUMBER     MODULUS         RATIO
               E              NU
    1     1.00000e+03     3.00000e-01


 E L E M E N T   I N F O R M A T I O N
  ELEMENT     NODE     NODE     NODE     NODE     NODE     NODE     NODE     NODE       MATERIAL
 NUMBER-N      1        2        3        4        5        6        7        8       SET NUMBER
     1          1        2        6        5        9       10       14       13           1
     2          2        3        7        6       10       11       15       14           1
     3          3        4        8        7       11       12       16       15           1
     4          1        5        8        4        9       13       16       12           1
     5          5        6        7        8       13       14       15       16           1

	TOTAL SYSTEM DATA

     NUMBER OF EQUATIONS . . . . . . . . . . . . . .(NEQ) = 42
     NUMBER OF MATRIX ELEMENTS . . . . . . . . . . .(NWK) = 892
     MAXIMUM HALF BANDWIDTH  . . . . . . . . . . . .(MK ) = 41
     MEAN HALF BANDWIDTH . . . . . . . . . . . . . .(MM ) = 21


 LOAD CASE    1


 D I S P L A C E M E N T S

  NODE           X-DISPLACEMENT    Y-DISPLACEMENT    Z-DISPLACEMENT    X-ANGLE    Y-ANGLE    Z-ANGLE
    1               0.00000e+00       0.00000e+00       0.00000e+00       0.00000e+00       0.00000e+00       0.00000e+00
    2               2.50000e-02       0.00000e+00       0.00000e+00       0.00000e+00       0.00000e+00       0.00000e+00
    3               2.50000e-02      -9.00000e-03       5.61846e-16       0.00000e+00       0.00000e+00       0.00000e+00
    4               2.15429e-16      -6.00000e-03       0.00000e+00       0.00000e+00       0.00000e+00       0.00000e+00
    5               5.00000e-03      -1.50000e-03       8.89539e-18       0.00000e+00       0.00000e+00       0.00000e+00
    6               2.00000e-02      -2.25000e-03       1.20920e-16       0.00000e+00       0.00000e+00       0.00000e+00
    7               1.75000e-02      -5.25000e-03       2.44333e-16       0.00000e+00       0.00000e+00       0.00000e+00
    8               6.50000e-03      -4.80000e-03       9.76624e-17       0.00000e+00       0.00000e+00       0.00000e+00
    9              -4.04933e-16      -3.41272e-16      -1.20000e-02       0.00000e+00       0.00000e+00       0.00000e+00
   10               2.50000e-02      -7.42072e-16      -1.20000e-02       0.00000e+00       0.00000e+00       0.00000e+00
   11               2.50000e-02      -9.00000e-03      -1.20000e-02       0.00000e+00       0.00000e+00       0.00000e+00
   12              -2.17421e-16      -6.00000e-03      -1.20000e-02       0.00000e+00       0.00000e+00       0.00000e+00
   13               5.00000e-03      -1.50000e-03      -1.20000e-02       0.00000e+00       0.00000e+00       0.00000e+00
   14               2.00000e-02      -2.25000e-03      -1.20000e-02       0.00000e+00       0.00000e+00       0.00000e+00
   15               1.75000e-02      -5.25000e-03      -1.20000e-02       0.00000e+00       0.00000e+00       0.00000e+00
   16               6.50000e-03      -4.80000e-03      -1.20000e-02       0.00000e+00       0.00000e+00       0.00000e+00

 S T R E S S  C A L C U L A T I O N S  F O R  E L E M E N T  G R O U P    1

  ELEMENT       S11               S22               S33               S12               S13               S23
    1      -9.05048e-01       5.56490e-01      -5.73317e-01      -1.28846e+00       3.31731e-01       1.36298e+00
    2      -4.84585e+00      -9.80930e-01      -2.00116e+00      -1.51970e+00       1.30546e+00       3.34897e-01
    3      -1.11223e+00      -2.10265e+00      -8.89464e-01      -6.60284e-01      -1.40001e-01       5.36481e-02
    4       4.42837e+00       4.80757e+00       2.91140e+00       3.27736e+00      -2.45463e-01      -6.38712e-01
    5      -1.17712e+00      -2.87642e+00      -1.04731e+00      -5.34965e-01       1.06993e-01      -5.75262e-01
  ELEMENT             STRESS
  NUMBER
    1   -9.05048e-01    5.56490e-01   -5.73317e-01
    2   -4.84585e+00   -9.80930e-01   -2.00116e+00
    3   -1.11223e+00   -2.10265e+00   -8.89464e-01
    4    4.42837e+00    4.80757e+00    2.91140e+00
    5   -1.17712e+00   -2.87642e+00   -1.04731e+00


 S O L U T I O N   T I M E   L O G   I N   S E C 

     TIME FOR INPUT PHASE = 2.14200e-03
     TIME FOR CALCULATION OF STIFFNESS MATRIX = 1.79970e-02
     TIME FOR FACTORIZATION AND LOAD CASE SOLUTIONS = 5.64000e-04

     T O T A L   S O L U T I O N   T I M E = 2.07030e-02

